NAME: instance_2621
TYPE: TSP
DIMENSION: 20
EDGE_WEIGHT_TYPE: EUC_2D
NODE_COORD_SECTION
0 64.31 79.37
1 63.71 43.50
2 65.20 96.28
3 74.00 94.29
4 84.69 45.94
5 72.67 65.42
6 1.63 58.47
7 54.15 67.38
8 97.37 52.02
9 15.74 64.89
10 42.41 10.43
11 63.72 17.19
12 12.50 32.84
13 38.11 8.84
14 14.61 62.52
15 1.10 51.16
16 29.24 99.12
17 49.74 27.58
18 46.95 37.26
19 79.21 46.69
EOF
